# Node Net
 40   1
480   1
 48   1
6322   2
6344   2
6080   3
6372   3
2721   4
1521   4
6347   5
 26   5
6081   6
5521   6
 19   7
  2   7
6397   8
5441   8
5680   9
2000   9
 28  10
4641  10
2801  11
6321  11
 61  12
1441  12
 59  13
 78  13
6370  14
 66  14
